12
0 481 679 163 808 205 608 338 527 375 500 195
481 0 204 318 694 646 556 728 120 156 341 296
679 204 0 517 793 850 694 931 172 353 486 487
163 318 517 0 735 342 544 450 369 221 390 55
808 694 793 735 0 789 200 736 813 594 367 774
205 646 850 342 789 0 594 142 711 512 559 388
608 556 694 544 200 594 0 554 676 430 214 586
338 728 931 450 736 142 554 0 808 581 573 501
527 120 172 369 813 711 676 808 0 264 461 331
375 156 353 221 594 512 430 581 264 0 226 227
500 341 486 390 367 559 214 573 461 226 0 419
195 296 487 55 774 388 586 501 331 227 419 0
